\ Equation counts
\     Total        E        G        L        N        X        C        B
\        41        0        0       41        0        0        0        0
\ 
\ Variable counts
\                  x        b        i      s1s      s2s       sc       si
\     Total     cont   binary  integer     sos1     sos2    scont     sint
\        80       60        0       20        0        0        0        0
\ 
\ Nonzero counts
\     Total    const       NL      DLL
\       160      120       40        0
\ 
Minimize
 obj: - .64 i1 - .38 i2 - .19 i3 - .43 i4 - .48 i5 - .12 i6 - .59 i7 - .23 i8 - .38 i9 - .85 i10 - .25 i11 
  - .29 i12 - .62 i13 - .82 i14 - .27 i15 - .98 i16 - .73 i17 - .34 i18 - .58 i19 - .11 i20 - .91 x21 
  - .88 x22 - .82 x23 - .26 x24 - 2e-2 x25 - .43 x26 - .31 x27 - .59 x28 - .16 x29 - .18 x30 - .42 x31 
  - 9e-2 x32 - .6 x33 - .47 x34 - .7 x35 - .7 x36 - .64 x37 - 3e-2 x38 - 7e-2 x39 - .32 x40 + 0 x42 + 0 x43 
  + 0 x44 + 0 x45 + 0 x46 + 0 x47 + 0 x48 + 0 x49 + 0 x50 + 0 x51 + 0 x52 + 0 x53 + 0 x54 + 0 x55 + 0 x56 
  + 0 x57 + 0 x58 + 0 x59 + 0 x60 + 0 x61 + 0 x62 + 0 x63 + 0 x64 + 0 x65 + 0 x66 + 0 x67 + 0 x68 + 0 x69 
  + 0 x70 + 0 x71 + 0 x72 + 0 x73 + 0 x74 + 0 x75 + 0 x76 + 0 x77 + 0 x78 + 0 x79 + 0 x80 + 0 x81

Subject To
 e1: x42 + x43 + x44 + x45 + x46 + x47 + x48 + x49 + x50 + x51 + x52 + x53 + x54 + x55 + x56 + x57 + x58 
  + x59 + x60 + x61 + x62 + x63 + x64 + x65 + x66 + x67 + x68 + x69 + x70 + x71 + x72 + x73 + x74 + x75 
  + x76 + x77 + x78 + x79 + x80 + x81 <= 99.9999
 e3: - x42 + [ i1^2 ] <= 0
 e4: - x43 + [ i2^2 ] <= 0
 e5: - x44 + [ i3^2 ] <= 0
 e6: - x45 + [ i4^2 ] <= 0
 e7: - x46 + [ i5^2 ] <= 0
 e8: - x47 + [ i6^2 ] <= 0
 e9: - x48 + [ i7^2 ] <= 0
 e10: - x49 + [ i8^2 ] <= 0
 e11: - x50 + [ i9^2 ] <= 0
 e12: - x51 + [ i10^2 ] <= 0
 e13: - x52 + [ i11^2 ] <= 0
 e14: - x53 + [ i12^2 ] <= 0
 e15: - x54 + [ i13^2 ] <= 0
 e16: - x55 + [ i14^2 ] <= 0
 e17: - x56 + [ i15^2 ] <= 0
 e18: - x57 + [ i16^2 ] <= 0
 e19: - x58 + [ i17^2 ] <= 0
 e20: - x59 + [ i18^2 ] <= 0
 e21: - x60 + [ i19^2 ] <= 0
 e22: - x61 + [ i20^2 ] <= 0
 e23: - x62 + [ x21^2 ] <= 0
 e24: - x63 + [ x22^2 ] <= 0
 e25: - x64 + [ x23^2 ] <= 0
 e26: - x65 + [ x24^2 ] <= 0
 e27: - x66 + [ x25^2 ] <= 0
 e28: - x67 + [ x26^2 ] <= 0
 e29: - x68 + [ x27^2 ] <= 0
 e30: - x69 + [ x28^2 ] <= 0
 e31: - x70 + [ x29^2 ] <= 0
 e32: - x71 + [ x30^2 ] <= 0
 e33: - x72 + [ x31^2 ] <= 0
 e34: - x73 + [ x32^2 ] <= 0
 e35: - x74 + [ x33^2 ] <= 0
 e36: - x75 + [ x34^2 ] <= 0
 e37: - x76 + [ x35^2 ] <= 0
 e38: - x77 + [ x36^2 ] <= 0
 e39: - x78 + [ x37^2 ] <= 0
 e40: - x79 + [ x38^2 ] <= 0
 e41: - x80 + [ x39^2 ] <= 0
 e42: - x81 + [ x40^2 ] <= 0

Bounds
 i1 <= 5
 i2 <= 5
 i3 <= 5
 i4 <= 5
 i5 <= 5
 i6 <= 5
 i7 <= 5
 i8 <= 5
 i9 <= 5
 i10 <= 5
 i11 <= 5
 i12 <= 5
 i13 <= 5
 i14 <= 5
 i15 <= 5
 i16 <= 5
 i17 <= 5
 i18 <= 5
 i19 <= 5
 i20 <= 5
 x21 <= 5
 x22 <= 5
 x23 <= 5
 x24 <= 5
 x25 <= 5
 x26 <= 5
 x27 <= 5
 x28 <= 5
 x29 <= 5
 x30 <= 5
 x31 <= 5
 x32 <= 5
 x33 <= 5
 x34 <= 5
 x35 <= 5
 x36 <= 5
 x37 <= 5
 x38 <= 5
 x39 <= 5
 x40 <= 5

General
 i1 i2 i3 i4 i5 i6 i7 i8 i9 i10 i11 i12 i13 i14 i15 i16 i17 i18 i19 i20

End
